PARAMETER_FILE = even/even_complete_graph_new/par/random96.par
PROBLEM_FILE = even/even_complete_graph_new/mat/random96.tsp
Successes/Runs = 0/10
Cost.min = 760, Cost.avg = 760.00, Cost.max = 760
Gap.min = 0.0000%, Gap.avg = 0.0000%, Gap.max = 0.0000%
Trials.min = 1000, Trials.avg = 1000.0, Trials.max = 1000
Time.min = 0.35 sec., Time.avg = 0.44 sec., Time.max = 0.61 sec.
Time.total = 4.48 sec.
